p cnf 54 188
3 1 0
3 -2 0
-1 2 -3 0
-4 -5 -6 0
4 5 -6 0
-4 5 6 0
4 -5 6 0
-7 -2 0
-7 -6 0
2 6 7 0
3 -7 -8 0
-3 7 -8 0
3 7 8 0
-3 -7 8 0
12 10 0
12 11 0
-10 -11 -12 0
-13 9 0
-13 -12 0
-9 12 13 0
14 -11 -15 0
-14 11 -15 0
14 11 15 0
-14 -11 15 0
12 15 -16 0
-12 -15 -16 0
12 -15 16 0
-12 15 16 0
-15 1 -17 0
15 -1 -17 0
-15 -1 17 0
15 1 17 0
-5 17 -18 0
5 -17 -18 0
-5 -17 18 0
5 17 18 0
-16 18 -19 0
16 -18 -19 0
-16 -18 19 0
16 18 19 0
-13 19 -20 0
13 -19 -20 0
-13 -19 20 0
13 19 20 0
22 -21 0
22 -4 0
21 4 -22 0
-23 -20 0
-23 22 0
20 -22 23 0
24 9 0
24 6 0
-9 -6 -24 0
25 9 0
25 -14 0
-9 14 -25 0
26 -24 0
26 25 0
24 -25 -26 0
-27 -23 0
-27 26 0
23 -26 27 0
-28 8 0
-28 -27 0
-8 27 28 0
-29 -13 0
-29 9 0
13 -9 29 0
30 -4 0
30 2 0
4 -2 -30 0
31 13 0
31 30 0
-13 -30 -31 0
15 -31 -32 0
-15 31 -32 0
15 31 32 0
-15 -31 32 0
33 29 0
33 32 0
-29 -32 -33 0
-34 3 0
-34 -4 0
-3 4 34 0
-35 18 0
-35 -34 0
-18 34 35 0
37 16 0
37 -36 0
-16 36 -37 0
38 -1 0
38 5 0
1 -5 -38 0
-39 -2 0
-39 -38 0
2 38 39 0
-9 -39 -40 0
9 39 -40 0
-9 39 40 0
9 -39 40 0
-4 -40 -41 0
4 40 -41 0
-4 40 41 0
4 -40 41 0
-42 -37 0
-42 -41 0
37 41 42 0
-43 -35 0
-43 -42 0
35 42 43 0
44 33 0
44 -43 0
-33 43 -44 0
28 44 -45 0
-28 -44 -45 0
28 -44 45 0
-28 44 45 0
-46 -9 0
-46 1 0
9 -1 46 0
-47 -2 0
-47 14 0
2 -14 47 0
48 38 0
48 -47 0
-38 47 -48 0
49 -46 0
49 -48 0
46 48 -49 0
50 -16 0
50 16 0
51 49 0
51 50 0
-49 -50 -51 0
52 14 0
52 17 0
-14 -17 -52 0
-51 52 -53 0
51 -52 -53 0
-51 -52 53 0
51 52 53 0
-54 45 0
-54 -53 0
-45 53 54 0
-31 10 16 11 0
-49 -22 -23 0
47 -49 -17 -3 -1 0
14 -29 12 42 23 -13 0
-12 20 -34 0
-52 -22 -25 9 0
19 23 7 -50 -44 0
-49 -54 37 32 0
-34 33 13 23 0
36 22 -18 0
-10 -54 16 43 40 0
39 -30 -22 -26 0
-31 9 -15 0
8 -37 -52 0
39 44 19 -17 30 0
5 16 0
38 47 33 -30 0
50 -38 0
23 -48 -13 0
10 -40 22 0
-45 7 -22 31 0
-13 -54 -26 0
-30 23 -8 11 26 0
16 13 -22 -24 44 52 0
-12 3 37 -43 -14 0
42 -7 0
52 3 9 0
-31 -29 12 0
-19 35 0
-19 -12 -2 21 0
-25 -37 4 27 36 0
-7 5 18 27 0
26 27 43 20 14 0
33 -3 0
18 -40 11 -13 0
-53 -31 25 23 43 14 0
-37 25 0
-23 -7 20 -49 36 16 0
-17 -13 40 -12 0
17 43 32 -30 3 -37 0
-3 5 -4 0
-17 52 -25 -1 -19 -53 0
11 46 -30 54 -36 0
54 0
